c 
c G(k,n,p) graph
c graph gen seed     : 1778
c number of vertices : 50
c max number of edges: 625
c number of classes  : 2
c edge density       : 0.400000
c edge probability   : 0.800000
c data structure     : dense
c
c           Graph Stats
c number of vertices  : 50
c nonisolated vertices: 50
c number of edges     : 421
c edge density        : 0.343673
c max degree          : 30
c avg degree          : 16.84
c min degree          : 8
p col 50 421
e 1 2
e 1 4
e 1 5
e 1 6
e 1 9
e 1 12
e 1 18
e 1 23
e 1 36
e 1 39
e 1 44
e 1 45
e 1 46
e 1 49
e 2 3
e 2 8
e 2 11
e 2 13
e 2 14
e 2 16
e 2 17
e 2 19
e 2 20
e 2 21
e 2 22
e 2 25
e 2 28
e 2 29
e 2 30
e 2 32
e 2 33
e 2 34
e 2 35
e 2 37
e 2 38
e 2 40
e 2 41
e 2 43
e 2 47
e 2 48
e 2 50
e 3 4
e 3 5
e 3 9
e 3 12
e 3 15
e 3 23
e 3 36
e 3 39
e 3 44
e 3 45
e 3 46
e 3 49
e 4 7
e 4 8
e 4 11
e 4 13
e 4 14
e 4 16
e 4 17
e 4 19
e 4 20
e 4 22
e 4 24
e 4 25
e 4 26
e 4 29
e 4 30
e 4 31
e 4 32
e 4 33
e 4 34
e 4 35
e 4 37
e 4 38
e 4 40
e 4 41
e 4 43
e 4 47
e 4 48
e 4 50
e 5 7
e 5 13
e 5 14
e 5 17
e 5 19
e 5 21
e 5 22
e 5 25
e 5 26
e 5 27
e 5 28
e 5 29
e 5 32
e 5 33
e 5 34
e 5 35
e 5 37
e 5 40
e 5 41
e 5 43
e 5 47
e 5 48
e 5 50
e 6 7
e 6 8
e 6 11
e 6 16
e 6 17
e 6 20
e 6 24
e 6 25
e 6 26
e 6 27
e 6 28
e 6 30
e 6 31
e 6 33
e 6 34
e 6 35
e 6 37
e 6 38
e 6 40
e 6 41
e 6 42
e 6 43
e 6 47
e 6 48
e 6 50
e 7 9
e 7 10
e 7 15
e 7 23
e 7 36
e 7 44
e 7 45
e 7 46
e 7 49
e 8 9
e 8 18
e 8 23
e 8 36
e 8 39
e 8 44
e 8 45
e 8 46
e 8 49
e 9 11
e 9 13
e 9 16
e 9 19
e 9 20
e 9 21
e 9 22
e 9 24
e 9 25
e 9 27
e 9 28
e 9 29
e 9 30
e 9 33
e 9 34
e 9 35
e 9 37
e 9 38
e 9 40
e 9 41
e 9 42
e 9 43
e 9 47
e 9 50
e 10 11
e 10 13
e 10 16
e 10 17
e 10 19
e 10 22
e 10 24
e 10 25
e 10 26
e 10 27
e 10 28
e 10 30
e 10 31
e 10 34
e 10 35
e 10 37
e 10 38
e 10 41
e 10 42
e 10 47
e 10 48
e 10 50
e 11 12
e 11 15
e 11 18
e 11 39
e 11 45
e 11 46
e 11 49
e 12 14
e 12 16
e 12 19
e 12 20
e 12 21
e 12 22
e 12 24
e 12 25
e 12 26
e 12 27
e 12 28
e 12 29
e 12 30
e 12 31
e 12 33
e 12 35
e 12 37
e 12 38
e 12 40
e 12 41
e 12 42
e 12 43
e 12 47
e 12 48
e 12 50
e 13 15
e 13 18
e 13 36
e 13 39
e 13 44
e 13 45
e 13 46
e 13 49
e 14 15
e 14 18
e 14 39
e 14 44
e 14 45
e 14 46
e 14 49
e 15 19
e 15 21
e 15 22
e 15 26
e 15 27
e 15 28
e 15 29
e 15 31
e 15 32
e 15 33
e 15 34
e 15 35
e 15 37
e 15 38
e 15 41
e 15 43
e 15 47
e 15 48
e 15 50
e 16 18
e 16 23
e 16 36
e 16 39
e 16 44
e 16 45
e 16 46
e 16 49
e 17 23
e 17 36
e 17 49
e 18 20
e 18 21
e 18 22
e 18 24
e 18 25
e 18 26
e 18 27
e 18 30
e 18 31
e 18 32
e 18 33
e 18 34
e 18 37
e 18 38
e 18 40
e 18 41
e 18 42
e 18 43
e 18 48
e 18 50
e 19 23
e 19 44
e 19 45
e 19 46
e 20 23
e 20 36
e 20 39
e 20 44
e 20 45
e 20 46
e 20 49
e 21 36
e 21 39
e 21 44
e 21 45
e 21 46
e 21 49
e 22 36
e 22 39
e 22 44
e 22 45
e 22 46
e 22 49
e 23 24
e 23 25
e 23 28
e 23 29
e 23 30
e 23 31
e 23 33
e 23 34
e 23 35
e 23 41
e 23 42
e 23 47
e 23 48
e 23 50
e 24 36
e 24 39
e 24 44
e 24 46
e 25 36
e 25 44
e 25 46
e 25 49
e 26 36
e 26 39
e 26 45
e 26 46
e 26 49
e 27 36
e 27 39
e 27 44
e 27 49
e 28 36
e 28 44
e 28 45
e 28 46
e 28 49
e 29 44
e 29 45
e 30 39
e 30 44
e 30 45
e 30 46
e 30 49
e 31 36
e 31 39
e 31 44
e 31 45
e 31 46
e 31 49
e 32 36
e 32 39
e 32 44
e 32 46
e 32 49
e 33 36
e 33 39
e 33 45
e 33 46
e 33 49
e 34 36
e 34 39
e 34 44
e 34 45
e 34 46
e 34 49
e 35 36
e 35 44
e 35 46
e 35 49
e 36 37
e 36 40
e 36 42
e 36 43
e 36 47
e 36 48
e 36 50
e 37 44
e 37 46
e 38 39
e 38 44
e 38 46
e 39 41
e 39 42
e 39 43
e 39 47
e 39 48
e 39 50
e 40 44
e 40 45
e 40 49
e 41 44
e 41 45
e 41 46
e 41 49
e 42 44
e 42 46
e 42 49
e 43 45
e 43 46
e 43 49
e 44 48
e 45 47
e 45 48
e 46 47
e 46 48
e 47 49
e 48 49
e 49 50
